92
0 9 26 62 84 17 39 20 33 1 
64 3 44 81 18 83 89 32 79 8 
4 91 23 6 29 87 75 88 35 15 
54 2 66 76 59 85 46 67 52 71 
82 11 45 63 69 38 55 25 48 78 
86 61 22 13 14 7 51 27 24 34 
90 74 70 68 28 19 16 65 50 36 
58 40 56 21 30 57 47 42 73 37 
53 41 49 77 80 72 12 43 60 5 
10 31 
